# Objective value = 25
Q2_0_0 1
Q3_0_0 0
Q2_0_1 1
Q3_0_1 0
Q2_0_2 1
Q3_0_2 0
Q2_0_3 0
Q3_0_3 1
Q2_0_4 0
Q3_0_4 1
Q2_0_5 0
Q3_0_5 1
Q2_0_6 1
Q3_0_6 0
Q2_0_7 1
Q3_0_7 0
Q2_1_0 1
Q3_1_0 0
Q2_1_1 0
Q3_1_1 0
Q2_1_2 1
Q3_1_2 0
Q2_1_3 0
Q3_1_3 0
Q2_1_4 0
Q3_1_4 0
Q2_1_5 0
Q3_1_5 0
Q2_1_6 0
Q3_1_6 0
Q2_1_7 1
Q3_1_7 0
L0 0
L1 1
L2 1
L3 0
L4 0
L5 0
L6 0
L7 0
L8 0
L9 0
L10 0
L11 0
L12 0
L13 0
L14 0
L15 0
L16 1
L17 1
L18 1
L19 0
L20 0
L21 0
L22 0
L23 0
L24 0
L25 0
L26 0
L27 0
L28 0
L29 0
L30 0
L31 0
X0_0 1
X0_1 1
X0_2 0
X0_3 0
X0_4 0
X0_5 1
X0_6 0
X0_7 0
X0_8 1
X0_9 1
X0_10 1
X0_11 1
X0_12 1
X0_13 1
X0_14 1
X0_15 0
X0_16 0
X0_17 0
X0_18 1
X0_19 1
X0_20 0
X0_21 0
X0_22 0
X0_23 1
X0_24 1
X0_25 0
X0_26 0
X0_27 0
X0_28 1
X0_29 0
X0_30 0
X0_31 0
Y0_0 0
Y0_1 0
Y0_2 1
Y0_3 0
Y0_4 0
Y0_5 1
Y0_6 0
Y0_7 1
Y0_8 1
Y0_9 1
Y0_10 0
Y0_11 1
Y0_12 0
Y0_13 0
Y0_14 1
Y0_15 1
Y0_16 1
Y0_17 1
Y0_18 0
Y0_19 1
Y0_20 1
Y0_21 1
Y0_22 0
Y0_23 0
Y0_24 1
Y0_25 0
Y0_26 0
Y0_27 1
Y0_28 1
Y0_29 0
Y0_30 1
Y0_31 0
X1_0 0
X1_1 0
Y1_0 1
Y1_1 0
Y1_2 1
X1_2 1
X1_3 0
Y1_3 1
X1_4 0
X1_5 0
Y1_4 0
Y1_5 0
Y1_6 0
X1_6 0
X1_7 0
Y1_7 0
X1_8 1
X1_9 1
Y1_8 1
Y1_9 1
Y1_10 0
X1_10 1
X1_11 1
Y1_11 1
X1_12 0
X1_13 0
Y1_12 0
Y1_13 0
Y1_14 0
X1_14 0
X1_15 0
Y1_15 0
X1_16 0
X1_17 0
Y1_16 0
Y1_17 0
Y1_18 0
X1_18 0
X1_19 0
Y1_19 0
X1_20 0
X1_21 0
Y1_20 0
Y1_21 0
Y1_22 0
X1_22 0
X1_23 0
Y1_23 0
X1_24 0
X1_25 0
Y1_24 0
Y1_25 0
Y1_26 0
X1_26 0
X1_27 0
Y1_27 0
X1_28 0
X1_29 1
Y1_28 1
Y1_29 0
Y1_30 0
X1_30 1
X1_31 1
Y1_31 0
Q0_0 1
Q0_1 1
Q0_2 1
Q0_3 1
Q0_4 1
Q0_5 1
Q0_6 1
Q0_7 1
Q1_0 1
Q1_1 0
Q1_2 1
Q1_3 0
Q1_4 0
Q1_5 0
Q1_6 0
Q1_7 1
D0_0_0 0
T0_0 0
D0_0_1 1
U0_0 1
D0_0_2 1
V0_0 0
D0_0_3 0
W0_0 0
D0_0_4 0
D0_1_0 1
T0_1 1
D0_1_1 1
U0_1 1
D0_1_2 1
V0_1 1
D0_1_3 1
W0_1 1
D0_1_4 1
D0_2_0 1
T0_2 1
D0_2_1 1
U0_2 0
D0_2_2 1
V0_2 1
D0_2_3 1
W0_2 0
D0_2_4 1
D0_3_0 0
T0_3 0
D0_3_1 1
U0_3 1
D0_3_2 1
V0_3 1
D0_3_3 1
W0_3 0
D0_3_4 0
D0_4_0 1
T0_4 1
D0_4_1 1
U0_4 0
D0_4_2 0
V0_4 0
D0_4_3 0
W0_4 0
D0_4_4 0
D0_5_0 1
T0_5 1
D0_5_1 1
U0_5 1
D0_5_2 1
V0_5 0
D0_5_3 0
W0_5 0
D0_5_4 0
D0_6_0 1
T0_6 1
D0_6_1 1
U0_6 0
D0_6_2 1
V0_6 1
D0_6_3 1
W0_6 0
D0_6_4 0
D0_7_0 1
T0_7 0
D0_7_1 0
U0_7 0
D0_7_2 0
V0_7 0
D0_7_3 0
W0_7 0
D0_7_4 0
D0_8_0 1
T0_8 0
D0_8_1 0
U0_8 0
D0_8_2 0
V0_8 0
D0_8_3 0
W0_8 0
D0_8_4 0
D0_9_0 1
T0_9 1
D0_9_1 1
U0_9 0
D0_9_2 1
V0_9 1
D0_9_3 1
W0_9 0
D0_9_4 0
D0_10_0 1
T0_10 1
D0_10_1 1
U0_10 0
D0_10_2 0
V0_10 0
D0_10_3 0
W0_10 0
D0_10_4 0
D0_11_0 1
T0_11 1
D0_11_1 1
U0_11 1
D0_11_2 1
V0_11 1
D0_11_3 1
W0_11 0
D0_11_4 0
D0_12_0 0
T0_12 0
D0_12_1 0
U0_12 0
D0_12_2 1
V0_12 1
D0_12_3 1
W0_12 0
D0_12_4 0
D0_13_0 1
T0_13 1
D0_13_1 1
U0_13 0
D0_13_2 0
V0_13 0
D0_13_3 1
W0_13 1
D0_13_4 1
D0_14_0 1
T0_14 0
D0_14_1 0
U0_14 0
D0_14_2 1
V0_14 1
D0_14_3 1
W0_14 1
D0_14_4 1
D0_15_0 1
T0_15 1
D0_15_1 1
U0_15 1
D0_15_2 1
V0_15 0
D0_15_3 1
W0_15 1
D0_15_4 1
D0_16_0 1
T0_16 0
D0_16_1 0
U0_16 0
D0_16_2 1
V0_16 1
D0_16_3 1
W0_16 1
D0_16_4 1
D0_17_0 1
T0_17 0
D0_17_1 1
U0_17 1
D0_17_2 1
V0_17 0
D0_17_3 1
W0_17 1
D0_17_4 1
D0_18_0 0
T0_18 0
D0_18_1 0
U0_18 0
D0_18_2 0
V0_18 0
D0_18_3 1
W0_18 1
D0_18_4 1
D0_19_0 1
T0_19 1
D0_19_1 1
U0_19 1
D0_19_2 1
V0_19 0
D0_19_3 0
W0_19 0
D0_19_4 0
D0_20_0 1
T0_20 0
D0_20_1 1
U0_20 1
D0_20_2 1
V0_20 1
D0_20_3 1
W0_20 0
D0_20_4 0
D0_21_0 1
T0_21 1
D0_21_1 1
U0_21 0
D0_21_2 1
V0_21 1
D0_21_3 1
W0_21 0
D0_21_4 0
D0_22_0 0
T0_22 0
D0_22_1 0
U0_22 0
D0_22_2 1
V0_22 1
D0_22_3 1
W0_22 0
D0_22_4 0
D0_23_0 1
T0_23 1
D0_23_1 1
U0_23 0
D0_23_2 0
V0_23 0
D0_23_3 0
W0_23 0
D0_23_4 0
D0_24_0 1
T0_24 0
D0_24_1 0
U0_24 0
D0_24_2 1
V0_24 1
D0_24_3 1
W0_24 1
D0_24_4 1
D0_25_0 0
T0_25 0
D0_25_1 1
U0_25 1
D0_25_2 1
V0_25 0
D0_25_3 1
W0_25 1
D0_25_4 1
D0_26_0 1
T0_26 1
D0_26_1 1
U0_26 0
D0_26_2 1
V0_26 1
D0_26_3 1
W0_26 1
D0_26_4 1
D0_27_0 1
T0_27 1
D0_27_1 1
U0_27 1
D0_27_2 1
V0_27 1
D0_27_3 1
W0_27 1
D0_27_4 1
D0_28_0 1
T0_28 0
D0_28_1 1
U0_28 1
D0_28_2 1
V0_28 1
D0_28_3 1
W0_28 0
D0_28_4 0
D0_29_0 1
T0_29 1
D0_29_1 1
U0_29 0
D0_29_2 1
V0_29 1
D0_29_3 1
W0_29 0
D0_29_4 0
D0_30_0 1
T0_30 1
D0_30_1 1
U0_30 0
D0_30_2 0
V0_30 0
D0_30_3 0
W0_30 0
D0_30_4 0
D0_31_0 1
T0_31 1
D0_31_1 1
U0_31 1
D0_31_2 1
V0_31 1
D0_31_3 1
W0_31 0
D0_31_4 0
D1_0_0 1
T1_0 1
D1_0_1 1
U1_0 1
D1_0_2 1
V1_0 0
D1_0_3 0
W1_0 0
D1_0_4 1
X2_0 1
D1_1_0 1
T1_1 1
D1_1_1 1
U1_1 1
D1_1_2 1
V1_1 1
D1_1_3 1
W1_1 1
D1_1_4 1
X2_1 0
D1_2_0 1
T1_2 0
D1_2_1 0
U1_2 0
D1_2_2 1
V1_2 1
D1_2_3 1
W1_2 1
D1_2_4 1
X2_2 1
D1_3_0 1
T1_3 1
D1_3_1 1
U1_3 0
D1_3_2 0
V1_3 0
D1_3_3 0
W1_3 0
D1_3_4 0
X2_3 0
D1_4_0 0
T1_4 0
D1_4_1 1
U1_4 1
D1_4_2 1
V1_4 1
D1_4_3 1
W1_4 0
D1_4_4 0
X2_4 0
D1_5_0 0
T1_5 0
D1_5_1 0
U1_5 0
D1_5_2 0
V1_5 0
D1_5_3 0
W1_5 0
D1_5_4 1
X2_5 1
D1_6_0 0
T1_6 0
D1_6_1 1
U1_6 1
D1_6_2 1
V1_6 1
D1_6_3 1
W1_6 0
D1_6_4 0
X2_6 0
D1_7_0 1
T1_7 1
D1_7_1 1
U1_7 1
D1_7_2 1
V1_7 0
D1_7_3 1
W1_7 1
D1_7_4 1
X2_7 1
D1_8_0 1
T1_8 0
D1_8_1 0
U1_8 0
D1_8_2 0
V1_8 0
D1_8_3 0
W1_8 0
D1_8_4 1
X2_24 1
D1_9_0 1
T1_9 1
D1_9_1 1
U1_9 1
D1_9_2 1
V1_9 0
D1_9_3 0
W1_9 0
D1_9_4 0
X2_25 0
D1_10_0 1
T1_10 1
D1_10_1 1
U1_10 1
D1_10_2 1
V1_10 0
D1_10_3 0
W1_10 0
D1_10_4 0
X2_26 0
D1_11_0 1
T1_11 1
D1_11_1 1
U1_11 0
D1_11_2 0
V1_11 0
D1_11_3 0
W1_11 0
D1_11_4 0
X2_27 0
D1_12_0 0
T1_12 0
D1_12_1 0
U1_12 0
D1_12_2 0
V1_12 0
D1_12_3 1
W1_12 1
D1_12_4 1
X2_28 0
D1_13_0 0
T1_13 0
D1_13_1 1
U1_13 1
D1_13_2 1
V1_13 1
D1_13_3 1
W1_13 0
D1_13_4 0
X2_29 0
D1_14_0 0
T1_14 0
D1_14_1 1
U1_14 1
D1_14_2 1
V1_14 1
D1_14_3 1
W1_14 1
D1_14_4 1
X2_30 1
D1_15_0 1
T1_15 1
D1_15_1 1
U1_15 1
D1_15_2 1
V1_15 0
D1_15_3 1
W1_15 1
D1_15_4 1
X2_31 1
D1_16_0 0
T1_16 0
D1_16_1 0
U1_16 0
D1_16_2 0
V1_16 0
D1_16_3 0
W1_16 0
D1_16_4 0
X2_16 0
D1_17_0 0
T1_17 0
D1_17_1 0
U1_17 0
D1_17_2 1
V1_17 1
D1_17_3 1
W1_17 1
D1_17_4 1
X2_17 1
D1_18_0 0
T1_18 0
D1_18_1 0
U1_18 0
D1_18_2 0
V1_18 0
D1_18_3 0
W1_18 0
D1_18_4 1
X2_18 1
D1_19_0 0
T1_19 0
D1_19_1 0
U1_19 0
D1_19_2 0
V1_19 0
D1_19_3 0
W1_19 0
D1_19_4 1
X2_19 1
D1_20_0 0
T1_20 0
D1_20_1 0
U1_20 0
D1_20_2 0
V1_20 0
D1_20_3 0
W1_20 0
D1_20_4 0
X2_20 0
D1_21_0 0
T1_21 0
D1_21_1 1
U1_21 1
D1_21_2 1
V1_21 1
D1_21_3 1
W1_21 1
D1_21_4 1
X2_21 1
D1_22_0 0
T1_22 0
D1_22_1 0
U1_22 0
D1_22_2 0
V1_22 0
D1_22_3 0
W1_22 0
D1_22_4 0
X2_22 0
D1_23_0 0
T1_23 0
D1_23_1 0
U1_23 0
D1_23_2 0
V1_23 0
D1_23_3 0
W1_23 0
D1_23_4 1
X2_23 1
D1_24_0 1
T1_24 1
D1_24_1 1
U1_24 1
D1_24_2 1
V1_24 1
D1_24_3 1
W1_24 1
D1_24_4 1
X2_8 0
D1_25_0 0
T1_25 0
D1_25_1 0
U1_25 0
D1_25_2 0
V1_25 0
D1_25_3 0
W1_25 0
D1_25_4 1
X2_9 1
D1_26_0 0
T1_26 0
D1_26_1 0
U1_26 0
D1_26_2 0
V1_26 0
D1_26_3 0
W1_26 0
D1_26_4 1
X2_10 1
D1_27_0 0
T1_27 0
D1_27_1 0
U1_27 0
D1_27_2 0
V1_27 0
D1_27_3 0
W1_27 0
D1_27_4 1
X2_11 1
D1_28_0 1
T1_28 1
D1_28_1 1
U1_28 1
D1_28_2 1
V1_28 1
D1_28_3 1
W1_28 1
D1_28_4 1
X2_12 0
D1_29_0 0
T1_29 0
D1_29_1 0
U1_29 0
D1_29_2 0
V1_29 0
D1_29_3 1
W1_29 1
D1_29_4 1
X2_13 0
D1_30_0 0
T1_30 0
D1_30_1 0
U1_30 0
D1_30_2 0
V1_30 0
D1_30_3 0
W1_30 0
D1_30_4 1
X2_14 1
D1_31_0 0
T1_31 0
D1_31_1 0
U1_31 0
D1_31_2 0
V1_31 0
D1_31_3 0
W1_31 0
D1_31_4 0
X2_15 0
